<number of tasks>
20


<number of equipment>
5


<cycle time>
1000


<investment costs>
1,25419
2,25390
3,8522
4,23111
5,20361


<task times>
1,-1,-1,396,144,173
2,-1,-1,424,242,205
3,59,67,155,-1,-1
4,-1,-1,409,151,259
5,-1,-1,300,137,185
6,-1,-1,362,173,209
7,105,146,396,-1,-1
8,145,180,288,-1,-1
9,232,332,451,-1,-1
10,141,-1,-1,168,-1
11,123,142,393,-1,-1
12,-1,-1,318,154,194
13,101,99,383,-1,-1
14,47,101,384,-1,-1
15,352,-1,-1,219,-1
16,-1,-1,337,145,186
17,-1,-1,341,132,159
18,-1,-1,425,207,216
19,-1,-1,238,150,194
20,220,-1,-1,234,-1


<precedence relations>
1,11
2,11
3,11
4,8
4,10
7,9
8,11
9,13
10,12
11,14
11,15
11,16
11,17
14,20
15,19
16,18


<task types>
1,3
2,3
3,2
4,3
5,3
6,3
7,2
8,2
9,2
10,1
11,2
12,3
13,2
14,2
15,1
16,3
17,3
18,3
19,3
20,1


<line depot>
1,1
2,0
3,5
4,1
5,0


<processing costs>
1,14400
2,7200
3,14400
4,14400
5,7200


<saving costs>
1,2541
2,2539
3,852
4,2311
5,2036


<end>
